p tw 309 365
1 2
2 113
3 14
4 5
5 6
6 7
6 10
7 8
8 9
9 12
10 11
11 12
12 13
13 15
14 169
15 16
16 17
17 18
17 20
18 19
19 57
20 21
21 22
22 23
23 24
24 26
25 36
26 27
27 28
28 29
28 32
29 30
30 31
31 46
32 33
33 34
34 35
34 42
35 37
36 47
37 38
38 39
38 42
39 40
40 41
41 44
42 43
43 44
44 45
45 46
46 48
47 58
47 125
48 49
49 50
49 52
50 51
51 52
51 22
52 53
53 54
54 55
55 56
56 57
57 59
58 69
59 60
60 233
61 62
62 63
63 64
64 65
65 66
66 67
66 71
67 68
68 70
69 80
70 86
71 72
72 73
73 74
73 82
74 75
75 76
76 77
77 78
77 82
78 79
79 81
80 91
80 125
81 84
82 83
83 84
84 85
85 86
86 87
87 88
88 89
88 90
89 233
90 92
91 102
92 93
93 94
94 95
95 96
96 97
96 100
97 98
98 99
99 117
100 101
101 103
102 114
103 104
103 111
104 105
105 106
106 107
107 108
107 111
108 109
109 110
110 115
111 112
112 115
113 224
114 147
115 116
116 117
117 118
118 119
119 120
119 137
120 121
121 122
122 123
123 124
124 126
124 128
125 136
126 127
127 137
128 129
129 130
130 131
130 137
131 132
132 133
133 134
134 135
134 137
135 137
136 147
137 138
138 233
139 140
140 141
141 142
142 143
143 144
144 145
144 148
145 146
146 156
147 158
148 149
149 150
150 151
150 156
151 152
152 153
153 154
154 155
154 156
155 156
156 157
157 233
158 169
159 160
160 161
161 162
162 163
163 164
164 165
164 168
165 166
166 167
167 184
168 170
169 180
170 171
171 172
171 179
172 173
173 174
174 175
175 176
175 179
176 177
177 178
178 182
179 181
180 191
181 182
182 183
183 184
184 185
185 186
186 187
187 188
187 189
188 233
189 190
190 192
191 202
191 265
192 193
193 194
194 195
195 196
196 197
197 198
197 201
198 199
199 200
200 216
201 203
202 213
203 204
204 205
204 211
205 206
206 207
207 208
207 211
208 209
209 210
210 214
211 212
212 214
213 225
213 139
214 215
215 216
216 217
217 218
218 219
218 227
219 220
220 221
220 227
221 222
222 223
222 192
223 226
224 244
225 235
226 192
227 228
228 233
229 230
230 231
230 224
231 232
232 233
233 234
235 236
235 90
236 237
237 238
237 61
238 239
239 240
239 159
240 241
241 242
241 229
242 243
243 245
243 159
244 255
245 246
246 247
246 61
247 248
248 249
248 159
249 250
250 251
250 159
251 252
252 253
252 61
253 254
254 256
254 159
255 266
256 257
257 258
257 296
258 259
259 260
259 159
260 261
261 262
261 159
262 263
263 264
263 159
264 231
265 267
266 277
267 268
268 269
269 270
270 271
271 272
272 273
273 274
273 278
274 275
275 276
276 292
277 288
278 279
279 280
280 281
280 287
281 282
282 283
283 284
283 287
284 285
285 286
286 290
287 289
288 299
288 25
289 290
290 291
291 292
292 293
293 294
294 295
294 268
295 233
296 297
297 298
298 300
299 3
300 301
301 302
302 303
302 306
303 304
304 305
305 15
306 307
307 308
308 309
308 10
309 4
